
Gurobi 6.5.2 (linux64) logging started Wed Aug 31 10:35:26 2016

Optimize a model with 41 rows, 115 columns and 273 nonzeros
Coefficient statistics:
  Matrix range    [1e+00, 2e+00]
  Objective range [1e+00, 9e+01]
  Bounds range    [1e+00, 1e+00]
  RHS range       [1e+00, 1e+00]
Found heuristic solution: objective 639
Presolve removed 15 rows and 4 columns
Presolve time: 0.00s
Presolved: 26 rows, 111 columns, 224 nonzeros
Variable types: 0 continuous, 111 integer (111 binary)

Root relaxation: objective 2.790000e+02, 25 iterations, 0.00 seconds

    Nodes    |    Current Node    |     Objective Bounds      |     Work
 Expl Unexpl |  Obj  Depth IntInf | Incumbent    BestBd   Gap | It/Node Time

     0     0  279.00000    0   10  639.00000  279.00000  56.3%     -    0s
H    0     0                     494.0000000  279.00000  43.5%     -    0s
H    0     0                     438.0000000  279.00000  36.3%     -    0s
     0     0  315.75000    0    9  438.00000  315.75000  27.9%     -    0s
H    0     0                     392.0000000  315.75000  19.5%     -    0s
H    0     0                     383.0000000  315.75000  17.6%     -    0s
H    0     0                     356.0000000  315.75000  11.3%     -    0s
H    0     0                     345.0000000  315.75000  8.48%     -    0s
     0     0  324.66667    0   22  345.00000  324.66667  5.89%     -    0s
     0     0  324.66667    0   10  345.00000  324.66667  5.89%     -    0s
     0     0  324.66667    0   11  345.00000  324.66667  5.89%     -    0s
     0     0  324.66667    0   22  345.00000  324.66667  5.89%     -    0s
H    0     0                     344.0000000  324.66667  5.62%     -    0s
     0     0  332.50000    0   23  344.00000  332.50000  3.34%     -    0s
     0     0  333.50000    0   27  344.00000  333.50000  3.05%     -    0s
H    0     0                     338.0000000  333.50000  1.33%     -    0s
     0     0  337.00000    0   22  338.00000  337.00000  0.30%     -    0s
     0     0  337.00000    0    7  338.00000  337.00000  0.30%     -    0s
     0     0  337.00000    0    2  338.00000  337.00000  0.30%     -    0s
     0     0     cutoff    0       338.00000  337.00034  0.30%     -    0s

Cutting planes:
  Gomory: 2
  Cover: 5
  Clique: 3

Explored 0 nodes (129 simplex iterations) in 0.02 seconds
Thread count was 8 (of 8 available processors)

Optimal solution found (tolerance 1.00e-04)
Best objective 3.380000000000e+02, best bound 3.380000000000e+02, gap 0.0%
